HUN,8,6,903
4,21,5,24,1,21,3,28,0,22,2,28
5,27,3,29,1,28,0,23,4,30,2,27
4,25,1,26,0,21,3,22,2,29,5,24
5,29,3,25,4,27,1,27,0,27,2,23
3,26,1,23,5,28,4,22,2,27,0,30
4,30,3,21,1,26,5,25,0,27,2,24
3,29,1,30,4,26,5,22,0,26,2,24
4,28,2,26,5,24,3,22,0,29,1,29
